VRPTWMS/instances/mip/freight/5/N5-C_DV10-C_SV50_F12_19_No_1.lp
\ N5-C_DV10-C_SV50_F12_19

Minimize
  11.18 x_d0_c1 + 11.18 z_d0_c1 + 22.36 x_d0_c2 + 22.36 z_d0_c2 + 4.12 x_d0_c3 + 4.12 z_d0_c3 + 23.43 x_d0_c4 + 23.43 z_d0_c4 + 25.0 x_d0_c5 + 25.0 z_d0_c5 + 12.04 x_c1_c2 + 12.04 x_c2_c1 + 12.04 z_c1_c2 + 12.04 z_c2_c1 + 15.3 x_c1_c3 + 15.3 x_c3_c1 + 15.3 z_c1_c3 + 15.3 z_c3_c1 + 30.53 x_c1_c4 + 30.53 x_c4_c1 + 30.53 z_c1_c4 + 30.53 z_c4_c1 + 35.36 x_c1_c5 + 35.36 x_c5_c1 + 35.36 z_c1_c5 + 35.36 z_c5_c1 + 26.4 x_c2_c3 + 26.4 x_c3_c2 + 26.4 z_c2_c3 + 26.4 z_c3_c2 + 35.9 x_c2_c4 + 35.9 x_c4_c2 + 35.9 z_c2_c4 + 35.9 z_c4_c2 + 47.17 x_c2_c5 + 47.17 x_c5_c2 + 47.17 z_c2_c5 + 47.17 z_c5_c2 + 21.95 x_c3_c4 + 21.95 x_c4_c3 + 21.95 z_c3_c4 + 21.95 z_c4_c3 + 21.26 x_c3_c5 + 21.26 x_c5_c3 + 21.26 z_c3_c5 + 21.26 z_c5_c3 + 33.38 x_c4_c5 + 33.38 x_c5_c4 + 33.38 z_c4_c5 + 33.38 z_c5_c4 + 11.18 x_c1_dN + 11.18 z_c1_dN + 22.36 x_c2_dN + 22.36 z_c2_dN + 4.12 x_c3_dN + 4.12 z_c3_dN + 23.43 x_c4_dN + 23.43 z_c4_dN + 25.0 x_c5_dN + 25.0 z_c5_dN + 1000.0 x_d0_c1 + 1000.0 z_d0_c1 + 1000.0 x_d0_c2 + 1000.0 z_d0_c2 + 1000.0 x_d0_c3 + 1000.0 z_d0_c3 + 1000.0 x_d0_c4 + 1000.0 z_d0_c4 + 1000.0 x_d0_c5 + 1000.0 z_d0_c5
Subject To
  Successor_DV_c1: x_c1_c2 + x_c1_c3 + x_c1_c4 + x_c1_c5 + x_c1_dN = 1
  Successor_DV_c2: x_c2_c1 + x_c2_c3 + x_c2_c4 + x_c2_c5 + x_c2_dN = 1
  Successor_DV_c3: x_c3_c1 + x_c3_c2 + x_c3_c4 + x_c3_c5 + x_c3_dN = 1
  Successor_DV_c4: x_c4_c1 + x_c4_c2 + x_c4_c3 + x_c4_c5 + x_c4_dN = 1
  Successor_DV_c5: x_c5_c1 + x_c5_c2 + x_c5_c3 + x_c5_c4 + x_c5_dN = 1
  Successor_SV_c1: z_c1_c2 + z_c1_c3 + z_c1_c4 + z_c1_c5 + z_c1_dN <= 1
  Successor_SV_c2: z_c2_c1 + z_c2_c3 + z_c2_c4 + z_c2_c5 + z_c2_dN <= 1
  Successor_SV_c3: z_c3_c1 + z_c3_c2 + z_c3_c4 + z_c3_c5 + z_c3_dN <= 1
  Successor_SV_c4: z_c4_c1 + z_c4_c2 + z_c4_c3 + z_c4_c5 + z_c4_dN <= 1
  Successor_SV_c5: z_c5_c1 + z_c5_c2 + z_c5_c3 + z_c5_c4 + z_c5_dN <= 1
  Flow_DV_c1: x_d0_c1 + x_c2_c1 + x_c3_c1 + x_c4_c1 + x_c5_c1 - x_c1_dN - x_c1_c2 - x_c1_c3 - x_c1_c4 - x_c1_c5 = 0
  Flow_DV_c2: x_d0_c2 + x_c1_c2 + x_c3_c2 + x_c4_c2 + x_c5_c2 - x_c2_dN - x_c2_c1 - x_c2_c3 - x_c2_c4 - x_c2_c5 = 0
  Flow_DV_c3: x_d0_c3 + x_c1_c3 + x_c2_c3 + x_c4_c3 + x_c5_c3 - x_c3_dN - x_c3_c1 - x_c3_c2 - x_c3_c4 - x_c3_c5 = 0
  Flow_DV_c4: x_d0_c4 + x_c1_c4 + x_c2_c4 + x_c3_c4 + x_c5_c4 - x_c4_dN - x_c4_c1 - x_c4_c2 - x_c4_c3 - x_c4_c5 = 0
  Flow_DV_c5: x_d0_c5 + x_c1_c5 + x_c2_c5 + x_c3_c5 + x_c4_c5 - x_c5_dN - x_c5_c1 - x_c5_c2 - x_c5_c3 - x_c5_c4 = 0
  Flow_SV_c1: z_d0_c1 + z_c2_c1 + z_c3_c1 + z_c4_c1 + z_c5_c1 - z_c1_dN - z_c1_c2 - z_c1_c3 - z_c1_c4 - z_c1_c5 = 0
  Flow_SV_c2: z_d0_c2 + z_c1_c2 + z_c3_c2 + z_c4_c2 + z_c5_c2 - z_c2_dN - z_c2_c1 - z_c2_c3 - z_c2_c4 - z_c2_c5 = 0
  Flow_SV_c3: z_d0_c3 + z_c1_c3 + z_c2_c3 + z_c4_c3 + z_c5_c3 - z_c3_dN - z_c3_c1 - z_c3_c2 - z_c3_c4 - z_c3_c5 = 0
  Flow_SV_c4: z_d0_c4 + z_c1_c4 + z_c2_c4 + z_c3_c4 + z_c5_c4 - z_c4_dN - z_c4_c1 - z_c4_c2 - z_c4_c3 - z_c4_c5 = 0
  Flow_SV_c5: z_d0_c5 + z_c1_c5 + z_c2_c5 + z_c3_c5 + z_c4_c5 - z_c5_dN - z_c5_c1 - z_c5_c2 - z_c5_c3 - z_c5_c4 = 0
  travelDV_d0_c1: tauD_d0 - tauD_c1 + 102.795 x_d0_c1 <= 100.0
  travelDV_d0_c2: tauD_d0 - tauD_c2 + 105.59 x_d0_c2 <= 100.0
  travelDV_d0_c3: tauD_d0 - tauD_c3 + 101.03 x_d0_c3 <= 100.0
  travelDV_d0_c4: tauD_d0 - tauD_c4 + 105.8575 x_d0_c4 <= 100.0
  travelDV_d0_c5: tauD_d0 - tauD_c5 + 106.25 x_d0_c5 <= 100.0
  travelDV_c1_c2: tauD_c1 - tauD_c2 + 110.01 x_c1_c2 + 8.0 p_1 <= 100.0
  travelDV_c1_c3: tauD_c1 - tauD_c3 + 110.825 x_c1_c3 + 8.0 p_1 <= 100.0
  travelDV_c1_c4: tauD_c1 - tauD_c4 + 114.6325 x_c1_c4 + 8.0 p_1 <= 100.0
  travelDV_c1_c5: tauD_c1 - tauD_c5 + 115.84 x_c1_c5 + 8.0 p_1 <= 100.0
  travelDV_c2_c1: tauD_c2 - tauD_c1 + 110.01 x_c2_c1 + 8.0 p_2 <= 100.0
  travelDV_c2_c3: tauD_c2 - tauD_c3 + 113.6 x_c2_c3 + 8.0 p_2 <= 100.0
  travelDV_c2_c4: tauD_c2 - tauD_c4 + 115.975 x_c2_c4 + 8.0 p_2 <= 100.0
  travelDV_c2_c5: tauD_c2 - tauD_c5 + 118.7925 x_c2_c5 + 8.0 p_2 <= 100.0
  travelDV_c3_c1: tauD_c3 - tauD_c1 + 110.825 x_c3_c1 + 8.0 p_3 <= 100.0
  travelDV_c3_c2: tauD_c3 - tauD_c2 + 113.6 x_c3_c2 + 8.0 p_3 <= 100.0
  travelDV_c3_c4: tauD_c3 - tauD_c4 + 112.4875 x_c3_c4 + 8.0 p_3 <= 100.0
  travelDV_c3_c5: tauD_c3 - tauD_c5 + 112.315 x_c3_c5 + 8.0 p_3 <= 100.0
  travelDV_c4_c1: tauD_c4 - tauD_c1 + 111.6325 x_c4_c1 + 8.0 p_4 <= 100.0
  travelDV_c4_c2: tauD_c4 - tauD_c2 + 112.975 x_c4_c2 + 8.0 p_4 <= 100.0
  travelDV_c4_c3: tauD_c4 - tauD_c3 + 109.4875 x_c4_c3 + 8.0 p_4 <= 100.0
  travelDV_c4_c5: tauD_c4 - tauD_c5 + 112.345 x_c4_c5 + 8.0 p_4 <= 100.0
  travelDV_c5_c1: tauD_c5 - tauD_c1 + 117.84 x_c5_c1 + 8.0 p_5 <= 100.0
  travelDV_c5_c2: tauD_c5 - tauD_c2 + 120.7925 x_c5_c2 + 8.0 p_5 <= 100.0
  travelDV_c5_c3: tauD_c5 - tauD_c3 + 114.315 x_c5_c3 + 8.0 p_5 <= 100.0
  travelDV_c5_c4: tauD_c5 - tauD_c4 + 117.345 x_c5_c4 + 8.0 p_5 <= 100.0
  TravelSV_d0_c1: tauS_d0 - tauS_c1 + 100.0 z_d0_c1 <= 97.205
  TravelSV_d0_c2: tauS_d0 - tauS_c2 + 100.0 z_d0_c2 <= 94.41
  TravelSV_d0_c3: tauS_d0 - tauS_c3 + 100.0 z_d0_c3 <= 98.97
  TravelSV_d0_c4: tauS_d0 - tauS_c4 + 100.0 z_d0_c4 <= 94.1425
  TravelSV_d0_c5: tauS_d0 - tauS_c5 + 100.0 z_d0_c5 <= 93.75
  TravelSV_d0_dN: tauS_d0 - tauS_dN + 100.0 z_d0_dN <= 100.0
  TravelSV_c1_c2: tauS_c1 - tauS_c2 + 100.0 z_c1_c2 <= 88.99
  TravelSV_c1_c3: tauS_c1 - tauS_c3 + 100.0 z_c1_c3 <= 88.175
  TravelSV_c1_c4: tauS_c1 - tauS_c4 + 100.0 z_c1_c4 <= 84.3675
  TravelSV_c1_c5: tauS_c1 - tauS_c5 + 100.0 z_c1_c5 <= 83.16
  TravelSV_c1_dN: tauS_c1 - tauS_dN + 100.0 z_c1_dN <= 89.205
  TravelSV_c2_c1: tauS_c2 - tauS_c1 + 100.0 z_c2_c1 <= 88.99
  TravelSV_c2_c3: tauS_c2 - tauS_c3 + 100.0 z_c2_c3 <= 85.4
  TravelSV_c2_c4: tauS_c2 - tauS_c4 + 100.0 z_c2_c4 <= 83.025
  TravelSV_c2_c5: tauS_c2 - tauS_c5 + 100.0 z_c2_c5 <= 80.2075
  TravelSV_c2_dN: tauS_c2 - tauS_dN + 100.0 z_c2_dN <= 86.41
  TravelSV_c3_c1: tauS_c3 - tauS_c1 + 100.0 z_c3_c1 <= 88.175
  TravelSV_c3_c2: tauS_c3 - tauS_c2 + 100.0 z_c3_c2 <= 85.4
  TravelSV_c3_c4: tauS_c3 - tauS_c4 + 100.0 z_c3_c4 <= 86.5125
  TravelSV_c3_c5: tauS_c3 - tauS_c5 + 100.0 z_c3_c5 <= 86.685
  TravelSV_c3_dN: tauS_c3 - tauS_dN + 100.0 z_c3_dN <= 90.97
  TravelSV_c4_c1: tauS_c4 - tauS_c1 + 100.0 z_c4_c1 <= 84.3675
  TravelSV_c4_c2: tauS_c4 - tauS_c2 + 100.0 z_c4_c2 <= 83.025
  TravelSV_c4_c3: tauS_c4 - tauS_c3 + 100.0 z_c4_c3 <= 86.5125
  TravelSV_c4_c5: tauS_c4 - tauS_c5 + 100.0 z_c4_c5 <= 83.655
  TravelSV_c4_dN: tauS_c4 - tauS_dN + 100.0 z_c4_dN <= 86.1425
  TravelSV_c5_c1: tauS_c5 - tauS_c1 + 100.0 z_c5_c1 <= 83.16
  TravelSV_c5_c2: tauS_c5 - tauS_c2 + 100.0 z_c5_c2 <= 80.2075
  TravelSV_c5_c3: tauS_c5 - tauS_c3 + 100.0 z_c5_c3 <= 86.685
  TravelSV_c5_c4: tauS_c5 - tauS_c4 + 100.0 z_c5_c4 <= 83.655
  TravelSV_c5_dN: tauS_c5 - tauS_dN + 100.0 z_c5_dN <= 85.75
  time_window_c1_e: tauD_c1 + 8.0 o_1 >= 70.0
  time_window_c1_l: tauD_c1 + 8.0 o_1 <= 85.0
  time_window_c2_e: tauD_c2 + 8.0 o_2 >= 25.0
  time_window_c2_l: tauD_c2 + 8.0 o_2 <= 40.0
  time_window_c3_e: tauD_c3 + 8.0 o_3 >= 0.0
  time_window_c3_l: tauD_c3 + 8.0 o_3 <= 100.0
  time_window_c4_e: tauD_c4 + 8.0 o_4 >= 10.0
  time_window_c4_l: tauD_c4 + 8.0 o_4 <= 25.0
  time_window_c5_e: tauD_c5 + 8.0 o_5 >= 65.0
  time_window_c5_l: tauD_c5 + 8.0 o_5 <= 80.0
  SyncA_c1_c2_c2: 7.0 o_1 + 100.0 x_c1_c2 - tauD_c2 - 3.01 z_c1_c2 + [ tauS_c2 * z_c1_c2 ] <= 96.99
  SyncA_c1_c2_c3: 7.0 o_1 + 100.0 x_c1_c2 - tauD_c2 - 3.825 z_c1_c3 + [ tauS_c3 * z_c1_c3 ] <= 96.99
  SyncA_c1_c2_c4: 7.0 o_1 + 100.0 x_c1_c2 - tauD_c2 - 7.6325 z_c1_c4 + [ tauS_c4 * z_c1_c4 ] <= 96.99
  SyncA_c1_c2_c5: 7.0 o_1 + 100.0 x_c1_c2 - tauD_c2 - 8.84 z_c1_c5 + [ tauS_c5 * z_c1_c5 ] <= 96.99
  SyncA_c1_c2_dN: 7.0 o_1 + 100.0 x_c1_c2 - tauD_c2 - 2.795 z_c1_dN + [ tauS_dN * z_c1_dN ] <= 96.99
  SyncA_c1_c3_c2: 7.0 o_1 + 100.0 x_c1_c3 - tauD_c3 - 3.01 z_c1_c2 + [ tauS_c2 * z_c1_c2 ] <= 96.175
  SyncA_c1_c3_c3: 7.0 o_1 + 100.0 x_c1_c3 - tauD_c3 - 3.825 z_c1_c3 + [ tauS_c3 * z_c1_c3 ] <= 96.175
  SyncA_c1_c3_c4: 7.0 o_1 + 100.0 x_c1_c3 - tauD_c3 - 7.6325 z_c1_c4 + [ tauS_c4 * z_c1_c4 ] <= 96.175
  SyncA_c1_c3_c5: 7.0 o_1 + 100.0 x_c1_c3 - tauD_c3 - 8.84 z_c1_c5 + [ tauS_c5 * z_c1_c5 ] <= 96.175
  SyncA_c1_c3_dN: 7.0 o_1 + 100.0 x_c1_c3 - tauD_c3 - 2.795 z_c1_dN + [ tauS_dN * z_c1_dN ] <= 96.175
  SyncA_c1_c4_c2: 7.0 o_1 + 100.0 x_c1_c4 - tauD_c4 - 3.01 z_c1_c2 + [ tauS_c2 * z_c1_c2 ] <= 92.3675
  SyncA_c1_c4_c3: 7.0 o_1 + 100.0 x_c1_c4 - tauD_c4 - 3.825 z_c1_c3 + [ tauS_c3 * z_c1_c3 ] <= 92.3675
  SyncA_c1_c4_c4: 7.0 o_1 + 100.0 x_c1_c4 - tauD_c4 - 7.6325 z_c1_c4 + [ tauS_c4 * z_c1_c4 ] <= 92.3675
  SyncA_c1_c4_c5: 7.0 o_1 + 100.0 x_c1_c4 - tauD_c4 - 8.84 z_c1_c5 + [ tauS_c5 * z_c1_c5 ] <= 92.3675
  SyncA_c1_c4_dN: 7.0 o_1 + 100.0 x_c1_c4 - tauD_c4 - 2.795 z_c1_dN + [ tauS_dN * z_c1_dN ] <= 92.3675
  SyncA_c1_c5_c2: 7.0 o_1 + 100.0 x_c1_c5 - tauD_c5 - 3.01 z_c1_c2 + [ tauS_c2 * z_c1_c2 ] <= 91.16
  SyncA_c1_c5_c3: 7.0 o_1 + 100.0 x_c1_c5 - tauD_c5 - 3.825 z_c1_c3 + [ tauS_c3 * z_c1_c3 ] <= 91.16
  SyncA_c1_c5_c4: 7.0 o_1 + 100.0 x_c1_c5 - tauD_c5 - 7.6325 z_c1_c4 + [ tauS_c4 * z_c1_c4 ] <= 91.16
  SyncA_c1_c5_c5: 7.0 o_1 + 100.0 x_c1_c5 - tauD_c5 - 8.84 z_c1_c5 + [ tauS_c5 * z_c1_c5 ] <= 91.16
  SyncA_c1_c5_dN: 7.0 o_1 + 100.0 x_c1_c5 - tauD_c5 - 2.795 z_c1_dN + [ tauS_dN * z_c1_dN ] <= 91.16
  SyncA_c1_dN_c2: 7.0 o_1 + 100.0 x_c1_dN - tauD_dN - 3.01 z_c1_c2 + [ tauS_c2 * z_c1_c2 ] <= 97.205
  SyncA_c1_dN_c3: 7.0 o_1 + 100.0 x_c1_dN - tauD_dN - 3.825 z_c1_c3 + [ tauS_c3 * z_c1_c3 ] <= 97.205
  SyncA_c1_dN_c4: 7.0 o_1 + 100.0 x_c1_dN - tauD_dN - 7.6325 z_c1_c4 + [ tauS_c4 * z_c1_c4 ] <= 97.205
  SyncA_c1_dN_c5: 7.0 o_1 + 100.0 x_c1_dN - tauD_dN - 8.84 z_c1_c5 + [ tauS_c5 * z_c1_c5 ] <= 97.205
  SyncA_c1_dN_dN: 7.0 o_1 + 100.0 x_c1_dN - tauD_dN - 2.795 z_c1_dN + [ tauS_dN * z_c1_dN ] <= 97.205
  SyncA_c2_c1_c1: 7.0 o_2 + 100.0 x_c2_c1 - tauD_c1 - 3.01 z_c2_c1 + [ tauS_c1 * z_c2_c1 ] <= 96.99
  SyncA_c2_c1_c3: 7.0 o_2 + 100.0 x_c2_c1 - tauD_c1 - 6.6 z_c2_c3 + [ tauS_c3 * z_c2_c3 ] <= 96.99
  SyncA_c2_c1_c4: 7.0 o_2 + 100.0 x_c2_c1 - tauD_c1 - 8.975 z_c2_c4 + [ tauS_c4 * z_c2_c4 ] <= 96.99
  SyncA_c2_c1_c5: 7.0 o_2 + 100.0 x_c2_c1 - tauD_c1 - 11.7925 z_c2_c5 + [ tauS_c5 * z_c2_c5 ] <= 96.99
  SyncA_c2_c1_dN: 7.0 o_2 + 100.0 x_c2_c1 - tauD_c1 - 5.59 z_c2_dN + [ tauS_dN * z_c2_dN ] <= 96.99
  SyncA_c2_c3_c1: 7.0 o_2 + 100.0 x_c2_c3 - tauD_c3 - 3.01 z_c2_c1 + [ tauS_c1 * z_c2_c1 ] <= 93.4
  SyncA_c2_c3_c3: 7.0 o_2 + 100.0 x_c2_c3 - tauD_c3 - 6.6 z_c2_c3 + [ tauS_c3 * z_c2_c3 ] <= 93.4
  SyncA_c2_c3_c4: 7.0 o_2 + 100.0 x_c2_c3 - tauD_c3 - 8.975 z_c2_c4 + [ tauS_c4 * z_c2_c4 ] <= 93.4
  SyncA_c2_c3_c5: 7.0 o_2 + 100.0 x_c2_c3 - tauD_c3 - 11.7925 z_c2_c5 + [ tauS_c5 * z_c2_c5 ] <= 93.4
  SyncA_c2_c3_dN: 7.0 o_2 + 100.0 x_c2_c3 - tauD_c3 - 5.59 z_c2_dN + [ tauS_dN * z_c2_dN ] <= 93.4
  SyncA_c2_c4_c1: 7.0 o_2 + 100.0 x_c2_c4 - tauD_c4 - 3.01 z_c2_c1 + [ tauS_c1 * z_c2_c1 ] <= 91.025
  SyncA_c2_c4_c3: 7.0 o_2 + 100.0 x_c2_c4 - tauD_c4 - 6.6 z_c2_c3 + [ tauS_c3 * z_c2_c3 ] <= 91.025
  SyncA_c2_c4_c4: 7.0 o_2 + 100.0 x_c2_c4 - tauD_c4 - 8.975 z_c2_c4 + [ tauS_c4 * z_c2_c4 ] <= 91.025
  SyncA_c2_c4_c5: 7.0 o_2 + 100.0 x_c2_c4 - tauD_c4 - 11.7925 z_c2_c5 + [ tauS_c5 * z_c2_c5 ] <= 91.025
  SyncA_c2_c4_dN: 7.0 o_2 + 100.0 x_c2_c4 - tauD_c4 - 5.59 z_c2_dN + [ tauS_dN * z_c2_dN ] <= 91.025
  SyncA_c2_c5_c1: 7.0 o_2 + 100.0 x_c2_c5 - tauD_c5 - 3.01 z_c2_c1 + [ tauS_c1 * z_c2_c1 ] <= 88.2075
  SyncA_c2_c5_c3: 7.0 o_2 + 100.0 x_c2_c5 - tauD_c5 - 6.6 z_c2_c3 + [ tauS_c3 * z_c2_c3 ] <= 88.2075
  SyncA_c2_c5_c4: 7.0 o_2 + 100.0 x_c2_c5 - tauD_c5 - 8.975 z_c2_c4 + [ tauS_c4 * z_c2_c4 ] <= 88.2075
  SyncA_c2_c5_c5: 7.0 o_2 + 100.0 x_c2_c5 - tauD_c5 - 11.7925 z_c2_c5 + [ tauS_c5 * z_c2_c5 ] <= 88.2075
  SyncA_c2_c5_dN: 7.0 o_2 + 100.0 x_c2_c5 - tauD_c5 - 5.59 z_c2_dN + [ tauS_dN * z_c2_dN ] <= 88.2075
  SyncA_c2_dN_c1: 7.0 o_2 + 100.0 x_c2_dN - tauD_dN - 3.01 z_c2_c1 + [ tauS_c1 * z_c2_c1 ] <= 94.41
  SyncA_c2_dN_c3: 7.0 o_2 + 100.0 x_c2_dN - tauD_dN - 6.6 z_c2_c3 + [ tauS_c3 * z_c2_c3 ] <= 94.41
  SyncA_c2_dN_c4: 7.0 o_2 + 100.0 x_c2_dN - tauD_dN - 8.975 z_c2_c4 + [ tauS_c4 * z_c2_c4 ] <= 94.41
  SyncA_c2_dN_c5: 7.0 o_2 + 100.0 x_c2_dN - tauD_dN - 11.7925 z_c2_c5 + [ tauS_c5 * z_c2_c5 ] <= 94.41
  SyncA_c2_dN_dN: 7.0 o_2 + 100.0 x_c2_dN - tauD_dN - 5.59 z_c2_dN + [ tauS_dN * z_c2_dN ] <= 94.41
  SyncA_c3_c1_c1: 7.0 o_3 + 100.0 x_c3_c1 - tauD_c1 - 3.825 z_c3_c1 + [ tauS_c1 * z_c3_c1 ] <= 96.175
  SyncA_c3_c1_c2: 7.0 o_3 + 100.0 x_c3_c1 - tauD_c1 - 6.6 z_c3_c2 + [ tauS_c2 * z_c3_c2 ] <= 96.175
  SyncA_c3_c1_c4: 7.0 o_3 + 100.0 x_c3_c1 - tauD_c1 - 5.4875 z_c3_c4 + [ tauS_c4 * z_c3_c4 ] <= 96.175
  SyncA_c3_c1_c5: 7.0 o_3 + 100.0 x_c3_c1 - tauD_c1 - 5.315 z_c3_c5 + [ tauS_c5 * z_c3_c5 ] <= 96.175
  SyncA_c3_c1_dN: 7.0 o_3 + 100.0 x_c3_c1 - tauD_c1 - 1.03 z_c3_dN + [ tauS_dN * z_c3_dN ] <= 96.175
  SyncA_c3_c2_c1: 7.0 o_3 + 100.0 x_c3_c2 - tauD_c2 - 3.825 z_c3_c1 + [ tauS_c1 * z_c3_c1 ] <= 93.4
  SyncA_c3_c2_c2: 7.0 o_3 + 100.0 x_c3_c2 - tauD_c2 - 6.6 z_c3_c2 + [ tauS_c2 * z_c3_c2 ] <= 93.4
  SyncA_c3_c2_c4: 7.0 o_3 + 100.0 x_c3_c2 - tauD_c2 - 5.4875 z_c3_c4 + [ tauS_c4 * z_c3_c4 ] <= 93.4
  SyncA_c3_c2_c5: 7.0 o_3 + 100.0 x_c3_c2 - tauD_c2 - 5.315 z_c3_c5 + [ tauS_c5 * z_c3_c5 ] <= 93.4
  SyncA_c3_c2_dN: 7.0 o_3 + 100.0 x_c3_c2 - tauD_c2 - 1.03 z_c3_dN + [ tauS_dN * z_c3_dN ] <= 93.4
  SyncA_c3_c4_c1: 7.0 o_3 + 100.0 x_c3_c4 - tauD_c4 - 3.825 z_c3_c1 + [ tauS_c1 * z_c3_c1 ] <= 94.5125
  SyncA_c3_c4_c2: 7.0 o_3 + 100.0 x_c3_c4 - tauD_c4 - 6.6 z_c3_c2 + [ tauS_c2 * z_c3_c2 ] <= 94.5125
  SyncA_c3_c4_c4: 7.0 o_3 + 100.0 x_c3_c4 - tauD_c4 - 5.4875 z_c3_c4 + [ tauS_c4 * z_c3_c4 ] <= 94.5125
  SyncA_c3_c4_c5: 7.0 o_3 + 100.0 x_c3_c4 - tauD_c4 - 5.315 z_c3_c5 + [ tauS_c5 * z_c3_c5 ] <= 94.5125
  SyncA_c3_c4_dN: 7.0 o_3 + 100.0 x_c3_c4 - tauD_c4 - 1.03 z_c3_dN + [ tauS_dN * z_c3_dN ] <= 94.5125
  SyncA_c3_c5_c1: 7.0 o_3 + 100.0 x_c3_c5 - tauD_c5 - 3.825 z_c3_c1 + [ tauS_c1 * z_c3_c1 ] <= 94.685
  SyncA_c3_c5_c2: 7.0 o_3 + 100.0 x_c3_c5 - tauD_c5 - 6.6 z_c3_c2 + [ tauS_c2 * z_c3_c2 ] <= 94.685
  SyncA_c3_c5_c4: 7.0 o_3 + 100.0 x_c3_c5 - tauD_c5 - 5.4875 z_c3_c4 + [ tauS_c4 * z_c3_c4 ] <= 94.685
  SyncA_c3_c5_c5: 7.0 o_3 + 100.0 x_c3_c5 - tauD_c5 - 5.315 z_c3_c5 + [ tauS_c5 * z_c3_c5 ] <= 94.685
  SyncA_c3_c5_dN: 7.0 o_3 + 100.0 x_c3_c5 - tauD_c5 - 1.03 z_c3_dN + [ tauS_dN * z_c3_dN ] <= 94.685
  SyncA_c3_dN_c1: 7.0 o_3 + 100.0 x_c3_dN - tauD_dN - 3.825 z_c3_c1 + [ tauS_c1 * z_c3_c1 ] <= 98.97
  SyncA_c3_dN_c2: 7.0 o_3 + 100.0 x_c3_dN - tauD_dN - 6.6 z_c3_c2 + [ tauS_c2 * z_c3_c2 ] <= 98.97
  SyncA_c3_dN_c4: 7.0 o_3 + 100.0 x_c3_dN - tauD_dN - 5.4875 z_c3_c4 + [ tauS_c4 * z_c3_c4 ] <= 98.97
  SyncA_c3_dN_c5: 7.0 o_3 + 100.0 x_c3_dN - tauD_dN - 5.315 z_c3_c5 + [ tauS_c5 * z_c3_c5 ] <= 98.97
  SyncA_c3_dN_dN: 7.0 o_3 + 100.0 x_c3_dN - tauD_dN - 1.03 z_c3_dN + [ tauS_dN * z_c3_dN ] <= 98.97
  SyncA_c4_c1_c1: 4.0 o_4 + 100.0 x_c4_c1 - tauD_c1 - 7.6325 z_c4_c1 + [ tauS_c1 * z_c4_c1 ] <= 92.3675
  SyncA_c4_c1_c2: 4.0 o_4 + 100.0 x_c4_c1 - tauD_c1 - 8.975 z_c4_c2 + [ tauS_c2 * z_c4_c2 ] <= 92.3675
  SyncA_c4_c1_c3: 4.0 o_4 + 100.0 x_c4_c1 - tauD_c1 - 5.4875 z_c4_c3 + [ tauS_c3 * z_c4_c3 ] <= 92.3675
  SyncA_c4_c1_c5: 4.0 o_4 + 100.0 x_c4_c1 - tauD_c1 - 8.345 z_c4_c5 + [ tauS_c5 * z_c4_c5 ] <= 92.3675
  SyncA_c4_c1_dN: 4.0 o_4 + 100.0 x_c4_c1 - tauD_c1 - 5.8575 z_c4_dN + [ tauS_dN * z_c4_dN ] <= 92.3675
  SyncA_c4_c2_c1: 4.0 o_4 + 100.0 x_c4_c2 - tauD_c2 - 7.6325 z_c4_c1 + [ tauS_c1 * z_c4_c1 ] <= 91.025
  SyncA_c4_c2_c2: 4.0 o_4 + 100.0 x_c4_c2 - tauD_c2 - 8.975 z_c4_c2 + [ tauS_c2 * z_c4_c2 ] <= 91.025
  SyncA_c4_c2_c3: 4.0 o_4 + 100.0 x_c4_c2 - tauD_c2 - 5.4875 z_c4_c3 + [ tauS_c3 * z_c4_c3 ] <= 91.025
  SyncA_c4_c2_c5: 4.0 o_4 + 100.0 x_c4_c2 - tauD_c2 - 8.345 z_c4_c5 + [ tauS_c5 * z_c4_c5 ] <= 91.025
  SyncA_c4_c2_dN: 4.0 o_4 + 100.0 x_c4_c2 - tauD_c2 - 5.8575 z_c4_dN + [ tauS_dN * z_c4_dN ] <= 91.025
  SyncA_c4_c3_c1: 4.0 o_4 + 100.0 x_c4_c3 - tauD_c3 - 7.6325 z_c4_c1 + [ tauS_c1 * z_c4_c1 ] <= 94.5125
  SyncA_c4_c3_c2: 4.0 o_4 + 100.0 x_c4_c3 - tauD_c3 - 8.975 z_c4_c2 + [ tauS_c2 * z_c4_c2 ] <= 94.5125
  SyncA_c4_c3_c3: 4.0 o_4 + 100.0 x_c4_c3 - tauD_c3 - 5.4875 z_c4_c3 + [ tauS_c3 * z_c4_c3 ] <= 94.5125
  SyncA_c4_c3_c5: 4.0 o_4 + 100.0 x_c4_c3 - tauD_c3 - 8.345 z_c4_c5 + [ tauS_c5 * z_c4_c5 ] <= 94.5125
  SyncA_c4_c3_dN: 4.0 o_4 + 100.0 x_c4_c3 - tauD_c3 - 5.8575 z_c4_dN + [ tauS_dN * z_c4_dN ] <= 94.5125
  SyncA_c4_c5_c1: 4.0 o_4 + 100.0 x_c4_c5 - tauD_c5 - 7.6325 z_c4_c1 + [ tauS_c1 * z_c4_c1 ] <= 91.655
  SyncA_c4_c5_c2: 4.0 o_4 + 100.0 x_c4_c5 - tauD_c5 - 8.975 z_c4_c2 + [ tauS_c2 * z_c4_c2 ] <= 91.655
  SyncA_c4_c5_c3: 4.0 o_4 + 100.0 x_c4_c5 - tauD_c5 - 5.4875 z_c4_c3 + [ tauS_c3 * z_c4_c3 ] <= 91.655
  SyncA_c4_c5_c5: 4.0 o_4 + 100.0 x_c4_c5 - tauD_c5 - 8.345 z_c4_c5 + [ tauS_c5 * z_c4_c5 ] <= 91.655
  SyncA_c4_c5_dN: 4.0 o_4 + 100.0 x_c4_c5 - tauD_c5 - 5.8575 z_c4_dN + [ tauS_dN * z_c4_dN ] <= 91.655
  SyncA_c4_dN_c1: 4.0 o_4 + 100.0 x_c4_dN - tauD_dN - 7.6325 z_c4_c1 + [ tauS_c1 * z_c4_c1 ] <= 94.1425
  SyncA_c4_dN_c2: 4.0 o_4 + 100.0 x_c4_dN - tauD_dN - 8.975 z_c4_c2 + [ tauS_c2 * z_c4_c2 ] <= 94.1425
  SyncA_c4_dN_c3: 4.0 o_4 + 100.0 x_c4_dN - tauD_dN - 5.4875 z_c4_c3 + [ tauS_c3 * z_c4_c3 ] <= 94.1425
  SyncA_c4_dN_c5: 4.0 o_4 + 100.0 x_c4_dN - tauD_dN - 8.345 z_c4_c5 + [ tauS_c5 * z_c4_c5 ] <= 94.1425
  SyncA_c4_dN_dN: 4.0 o_4 + 100.0 x_c4_dN - tauD_dN - 5.8575 z_c4_dN + [ tauS_dN * z_c4_dN ] <= 94.1425
  SyncA_c5_c1_c1: 9.0 o_5 + 100.0 x_c5_c1 - tauD_c1 - 8.84 z_c5_c1 + [ tauS_c1 * z_c5_c1 ] <= 91.16
  SyncA_c5_c1_c2: 9.0 o_5 + 100.0 x_c5_c1 - tauD_c1 - 11.7925 z_c5_c2 + [ tauS_c2 * z_c5_c2 ] <= 91.16
  SyncA_c5_c1_c3: 9.0 o_5 + 100.0 x_c5_c1 - tauD_c1 - 5.315 z_c5_c3 + [ tauS_c3 * z_c5_c3 ] <= 91.16
  SyncA_c5_c1_c4: 9.0 o_5 + 100.0 x_c5_c1 - tauD_c1 - 8.345 z_c5_c4 + [ tauS_c4 * z_c5_c4 ] <= 91.16
  SyncA_c5_c1_dN: 9.0 o_5 + 100.0 x_c5_c1 - tauD_c1 - 6.25 z_c5_dN + [ tauS_dN * z_c5_dN ] <= 91.16
  SyncA_c5_c2_c1: 9.0 o_5 + 100.0 x_c5_c2 - tauD_c2 - 8.84 z_c5_c1 + [ tauS_c1 * z_c5_c1 ] <= 88.2075
  SyncA_c5_c2_c2: 9.0 o_5 + 100.0 x_c5_c2 - tauD_c2 - 11.7925 z_c5_c2 + [ tauS_c2 * z_c5_c2 ] <= 88.2075
  SyncA_c5_c2_c3: 9.0 o_5 + 100.0 x_c5_c2 - tauD_c2 - 5.315 z_c5_c3 + [ tauS_c3 * z_c5_c3 ] <= 88.2075
  SyncA_c5_c2_c4: 9.0 o_5 + 100.0 x_c5_c2 - tauD_c2 - 8.345 z_c5_c4 + [ tauS_c4 * z_c5_c4 ] <= 88.2075
  SyncA_c5_c2_dN: 9.0 o_5 + 100.0 x_c5_c2 - tauD_c2 - 6.25 z_c5_dN + [ tauS_dN * z_c5_dN ] <= 88.2075
  SyncA_c5_c3_c1: 9.0 o_5 + 100.0 x_c5_c3 - tauD_c3 - 8.84 z_c5_c1 + [ tauS_c1 * z_c5_c1 ] <= 94.685
  SyncA_c5_c3_c2: 9.0 o_5 + 100.0 x_c5_c3 - tauD_c3 - 11.7925 z_c5_c2 + [ tauS_c2 * z_c5_c2 ] <= 94.685
  SyncA_c5_c3_c3: 9.0 o_5 + 100.0 x_c5_c3 - tauD_c3 - 5.315 z_c5_c3 + [ tauS_c3 * z_c5_c3 ] <= 94.685
  SyncA_c5_c3_c4: 9.0 o_5 + 100.0 x_c5_c3 - tauD_c3 - 8.345 z_c5_c4 + [ tauS_c4 * z_c5_c4 ] <= 94.685
  SyncA_c5_c3_dN: 9.0 o_5 + 100.0 x_c5_c3 - tauD_c3 - 6.25 z_c5_dN + [ tauS_dN * z_c5_dN ] <= 94.685
  SyncA_c5_c4_c1: 9.0 o_5 + 100.0 x_c5_c4 - tauD_c4 - 8.84 z_c5_c1 + [ tauS_c1 * z_c5_c1 ] <= 91.655
  SyncA_c5_c4_c2: 9.0 o_5 + 100.0 x_c5_c4 - tauD_c4 - 11.7925 z_c5_c2 + [ tauS_c2 * z_c5_c2 ] <= 91.655
  SyncA_c5_c4_c3: 9.0 o_5 + 100.0 x_c5_c4 - tauD_c4 - 5.315 z_c5_c3 + [ tauS_c3 * z_c5_c3 ] <= 91.655
  SyncA_c5_c4_c4: 9.0 o_5 + 100.0 x_c5_c4 - tauD_c4 - 8.345 z_c5_c4 + [ tauS_c4 * z_c5_c4 ] <= 91.655
  SyncA_c5_c4_dN: 9.0 o_5 + 100.0 x_c5_c4 - tauD_c4 - 6.25 z_c5_dN + [ tauS_dN * z_c5_dN ] <= 91.655
  SyncA_c5_dN_c1: 9.0 o_5 + 100.0 x_c5_dN - tauD_dN - 8.84 z_c5_c1 + [ tauS_c1 * z_c5_c1 ] <= 93.75
  SyncA_c5_dN_c2: 9.0 o_5 + 100.0 x_c5_dN - tauD_dN - 11.7925 z_c5_c2 + [ tauS_c2 * z_c5_c2 ] <= 93.75
  SyncA_c5_dN_c3: 9.0 o_5 + 100.0 x_c5_dN - tauD_dN - 5.315 z_c5_c3 + [ tauS_c3 * z_c5_c3 ] <= 93.75
  SyncA_c5_dN_c4: 9.0 o_5 + 100.0 x_c5_dN - tauD_dN - 8.345 z_c5_c4 + [ tauS_c4 * z_c5_c4 ] <= 93.75
  SyncA_c5_dN_dN: 9.0 o_5 + 100.0 x_c5_dN - tauD_dN - 6.25 z_c5_dN + [ tauS_dN * z_c5_dN ] <= 93.75
  SVFirst_c1_c2: tauS_c2 - tauD_c1 + 7.0 o_1 - 100.0 z_c1_c2 >= -81.99
  SVFirst_c1_c3: tauS_c3 - tauD_c1 + 7.0 o_1 - 100.0 z_c1_c3 >= -81.175
  SVFirst_c1_c4: tauS_c4 - tauD_c1 + 7.0 o_1 - 100.0 z_c1_c4 >= -77.3675
  SVFirst_c1_c5: tauS_c5 - tauD_c1 + 7.0 o_1 - 100.0 z_c1_c5 >= -76.16
  SVFirst_c1_dN:  tauS_dN - tauD_c1 + 7.0 o_1 - 100.0 z_c1_dN >= -82.205
  SVFirst_c2_c1: tauS_c1 - tauD_c2 + 7.0 o_2 - 100.0 z_c2_c1 >= -81.99
  SVFirst_c2_c3: tauS_c3 - tauD_c2 + 7.0 o_2 - 100.0 z_c2_c3 >= -78.4
  SVFirst_c2_c4: tauS_c4 - tauD_c2 + 7.0 o_2 - 100.0 z_c2_c4 >= -76.025
  SVFirst_c2_c5: tauS_c5 - tauD_c2 + 7.0 o_2 - 100.0 z_c2_c5 >= -73.2075
  SVFirst_c2_dN:  tauS_dN - tauD_c2 + 7.0 o_2 - 100.0 z_c2_dN >= -79.41
  SVFirst_c3_c1: tauS_c1 - tauD_c3 + 7.0 o_3 - 100.0 z_c3_c1 >= -81.175
  SVFirst_c3_c2: tauS_c2 - tauD_c3 + 7.0 o_3 - 100.0 z_c3_c2 >= -78.4
  SVFirst_c3_c4: tauS_c4 - tauD_c3 + 7.0 o_3 - 100.0 z_c3_c4 >= -79.5125
  SVFirst_c3_c5: tauS_c5 - tauD_c3 + 7.0 o_3 - 100.0 z_c3_c5 >= -79.685
  SVFirst_c3_dN:  tauS_dN - tauD_c3 + 7.0 o_3 - 100.0 z_c3_dN >= -83.97
  SVFirst_c4_c1: tauS_c1 - tauD_c4 + 4.0 o_4 - 100.0 z_c4_c1 >= -80.3675
  SVFirst_c4_c2: tauS_c2 - tauD_c4 + 4.0 o_4 - 100.0 z_c4_c2 >= -79.025
  SVFirst_c4_c3: tauS_c3 - tauD_c4 + 4.0 o_4 - 100.0 z_c4_c3 >= -82.5125
  SVFirst_c4_c5: tauS_c5 - tauD_c4 + 4.0 o_4 - 100.0 z_c4_c5 >= -79.655
  SVFirst_c4_dN:  tauS_dN - tauD_c4 + 4.0 o_4 - 100.0 z_c4_dN >= -82.1425
  SVFirst_c5_c1: tauS_c1 - tauD_c5 + 9.0 o_5 - 100.0 z_c5_c1 >= -74.16
  SVFirst_c5_c2: tauS_c2 - tauD_c5 + 9.0 o_5 - 100.0 z_c5_c2 >= -71.2075
  SVFirst_c5_c3: tauS_c3 - tauD_c5 + 9.0 o_5 - 100.0 z_c5_c3 >= -77.685
  SVFirst_c5_c4: tauS_c4 - tauD_c5 + 9.0 o_5 - 100.0 z_c5_c4 >= -74.655
  SVFirst_c5_dN:  tauS_dN - tauD_c5 + 9.0 o_5 - 100.0 z_c5_dN >= -76.75
  Precedence_Swap_c1:  p_1 - z_d0_c1 - z_c2_c1 - z_c3_c1 - z_c4_c1 - z_c5_c1 = 0
  Precedence_Swap_c2:  p_2 - z_d0_c2 - z_c1_c2 - z_c3_c2 - z_c4_c2 - z_c5_c2 = 0
  Precedence_Swap_c3:  p_3 - z_d0_c3 - z_c1_c3 - z_c2_c3 - z_c4_c3 - z_c5_c3 = 0
  Precedence_Swap_c4:  p_4 - z_d0_c4 - z_c1_c4 - z_c2_c4 - z_c3_c4 - z_c5_c4 = 0
  Precedence_Swap_c5:  p_5 - z_d0_c5 - z_c1_c5 - z_c2_c5 - z_c3_c5 - z_c4_c5 = 0
  Order_c1:  o_1 - p_1 <= 0
  Order_c2:  o_2 - p_2 <= 0
  Order_c3:  o_3 - p_3 <= 0
  Order_c4:  o_4 - p_4 <= 0
  Order_c5:  o_5 - p_5 <= 0
  WorkingTimeS_c1:  tauS_c1 <= 89.205
  WorkingTimeS_c2:  tauS_c2 <= 86.41
  WorkingTimeS_c3:  tauS_c3 <= 90.97
  WorkingTimeS_c4:  tauS_c4 <= 86.1425
  WorkingTimeS_c5:  tauS_c5 <= 85.75
  FreightDV_c1_c2:  k_c2 - kDash_c1 - 10.0 p_1 + 10.0 x_c1_c2 + [ kDash_c1 * p_1 - kDash_c1 * o_1 + 10.0 p_1 * o_1 ] <= 10.0
  FreightDV_c1_c3:  k_c3 - kDash_c1 - 10.0 p_1 + 10.0 x_c1_c3 + [ kDash_c1 * p_1 - kDash_c1 * o_1 + 10.0 p_1 * o_1 ] <= 10.0
  FreightDV_c1_c4:  k_c4 - kDash_c1 - 10.0 p_1 + 10.0 x_c1_c4 + [ kDash_c1 * p_1 - kDash_c1 * o_1 + 10.0 p_1 * o_1 ] <= 10.0
  FreightDV_c1_c5:  k_c5 - kDash_c1 - 10.0 p_1 + 10.0 x_c1_c5 + [ kDash_c1 * p_1 - kDash_c1 * o_1 + 10.0 p_1 * o_1 ] <= 10.0
  FreightDV_c1_dN:  k_dN - kDash_c1 - 10.0 p_1 + 10.0 x_c1_dN + [ kDash_c1 * p_1 - kDash_c1 * o_1 + 10.0 p_1 * o_1 ] <= 10.0
  FreightDV_c1:  kDash_c1 - k_c1 - 10.0 o_1 + [ k_c1 * o_1 ] <= -6.0
  FreightDV_c2_c1:  k_c1 - kDash_c2 - 10.0 p_2 + 10.0 x_c2_c1 + [ kDash_c2 * p_2 - kDash_c2 * o_2 + 10.0 p_2 * o_2 ] <= 10.0
  FreightDV_c2_c3:  k_c3 - kDash_c2 - 10.0 p_2 + 10.0 x_c2_c3 + [ kDash_c2 * p_2 - kDash_c2 * o_2 + 10.0 p_2 * o_2 ] <= 10.0
  FreightDV_c2_c4:  k_c4 - kDash_c2 - 10.0 p_2 + 10.0 x_c2_c4 + [ kDash_c2 * p_2 - kDash_c2 * o_2 + 10.0 p_2 * o_2 ] <= 10.0
  FreightDV_c2_c5:  k_c5 - kDash_c2 - 10.0 p_2 + 10.0 x_c2_c5 + [ kDash_c2 * p_2 - kDash_c2 * o_2 + 10.0 p_2 * o_2 ] <= 10.0
  FreightDV_c2_dN:  k_dN - kDash_c2 - 10.0 p_2 + 10.0 x_c2_dN + [ kDash_c2 * p_2 - kDash_c2 * o_2 + 10.0 p_2 * o_2 ] <= 10.0
  FreightDV_c2:  kDash_c2 - k_c2 - 10.0 o_2 + [ k_c2 * o_2 ] <= -7.0
  FreightDV_c3_c1:  k_c1 - kDash_c3 - 10.0 p_3 + 10.0 x_c3_c1 + [ kDash_c3 * p_3 - kDash_c3 * o_3 + 10.0 p_3 * o_3 ] <= 10.0
  FreightDV_c3_c2:  k_c2 - kDash_c3 - 10.0 p_3 + 10.0 x_c3_c2 + [ kDash_c3 * p_3 - kDash_c3 * o_3 + 10.0 p_3 * o_3 ] <= 10.0
  FreightDV_c3_c4:  k_c4 - kDash_c3 - 10.0 p_3 + 10.0 x_c3_c4 + [ kDash_c3 * p_3 - kDash_c3 * o_3 + 10.0 p_3 * o_3 ] <= 10.0
  FreightDV_c3_c5:  k_c5 - kDash_c3 - 10.0 p_3 + 10.0 x_c3_c5 + [ kDash_c3 * p_3 - kDash_c3 * o_3 + 10.0 p_3 * o_3 ] <= 10.0
  FreightDV_c3_dN:  k_dN - kDash_c3 - 10.0 p_3 + 10.0 x_c3_dN + [ kDash_c3 * p_3 - kDash_c3 * o_3 + 10.0 p_3 * o_3 ] <= 10.0
  FreightDV_c3:  kDash_c3 - k_c3 - 10.0 o_3 + [ k_c3 * o_3 ] <= -7.0
  FreightDV_c4_c1:  k_c1 - kDash_c4 - 10.0 p_4 + 10.0 x_c4_c1 + [ kDash_c4 * p_4 - kDash_c4 * o_4 + 10.0 p_4 * o_4 ] <= 10.0
  FreightDV_c4_c2:  k_c2 - kDash_c4 - 10.0 p_4 + 10.0 x_c4_c2 + [ kDash_c4 * p_4 - kDash_c4 * o_4 + 10.0 p_4 * o_4 ] <= 10.0
  FreightDV_c4_c3:  k_c3 - kDash_c4 - 10.0 p_4 + 10.0 x_c4_c3 + [ kDash_c4 * p_4 - kDash_c4 * o_4 + 10.0 p_4 * o_4 ] <= 10.0
  FreightDV_c4_c5:  k_c5 - kDash_c4 - 10.0 p_4 + 10.0 x_c4_c5 + [ kDash_c4 * p_4 - kDash_c4 * o_4 + 10.0 p_4 * o_4 ] <= 10.0
  FreightDV_c4_dN:  k_dN - kDash_c4 - 10.0 p_4 + 10.0 x_c4_dN + [ kDash_c4 * p_4 - kDash_c4 * o_4 + 10.0 p_4 * o_4 ] <= 10.0
  FreightDV_c4:  kDash_c4 - k_c4 - 10.0 o_4 + [ k_c4 * o_4 ] <= -6.0
  FreightDV_c5_c1:  k_c1 - kDash_c5 - 10.0 p_5 + 10.0 x_c5_c1 + [ kDash_c5 * p_5 - kDash_c5 * o_5 + 10.0 p_5 * o_5 ] <= 10.0
  FreightDV_c5_c2:  k_c2 - kDash_c5 - 10.0 p_5 + 10.0 x_c5_c2 + [ kDash_c5 * p_5 - kDash_c5 * o_5 + 10.0 p_5 * o_5 ] <= 10.0
  FreightDV_c5_c3:  k_c3 - kDash_c5 - 10.0 p_5 + 10.0 x_c5_c3 + [ kDash_c5 * p_5 - kDash_c5 * o_5 + 10.0 p_5 * o_5 ] <= 10.0
  FreightDV_c5_c4:  k_c4 - kDash_c5 - 10.0 p_5 + 10.0 x_c5_c4 + [ kDash_c5 * p_5 - kDash_c5 * o_5 + 10.0 p_5 * o_5 ] <= 10.0
  FreightDV_c5_dN:  k_dN - kDash_c5 - 10.0 p_5 + 10.0 x_c5_dN + [ kDash_c5 * p_5 - kDash_c5 * o_5 + 10.0 p_5 * o_5 ] <= 10.0
  FreightDV_c5:  kDash_c5 - k_c5 - 10.0 o_5 + [ k_c5 * o_5 ] <= -4.0
  FreightSV_c1_c2:  pi_c2 - pi_c1 - kDash_c1 + 20.0 z_c1_c2 + [ kDash_c1 * o_1 - k_c1 * o_1 ] <= 10.0
  FreightSV_c1_c3:  pi_c3 - pi_c1 - kDash_c1 + 20.0 z_c1_c3 + [ kDash_c1 * o_1 - k_c1 * o_1 ] <= 10.0
  FreightSV_c1_c4:  pi_c4 - pi_c1 - kDash_c1 + 20.0 z_c1_c4 + [ kDash_c1 * o_1 - k_c1 * o_1 ] <= 10.0
  FreightSV_c1_c5:  pi_c5 - pi_c1 - kDash_c1 + 20.0 z_c1_c5 + [ kDash_c1 * o_1 - k_c1 * o_1 ] <= 10.0
  FreightSV_c1_dN:  pi_dN - pi_c1 - kDash_c1 + 20.0 z_c1_dN + [ kDash_c1 * o_1 - k_c1 * o_1 ] <= 10.0
  FreightSV_c2_c1:  pi_c1 - pi_c2 - kDash_c2 + 20.0 z_c2_c1 + [ kDash_c2 * o_2 - k_c2 * o_2 ] <= 10.0
  FreightSV_c2_c3:  pi_c3 - pi_c2 - kDash_c2 + 20.0 z_c2_c3 + [ kDash_c2 * o_2 - k_c2 * o_2 ] <= 10.0
  FreightSV_c2_c4:  pi_c4 - pi_c2 - kDash_c2 + 20.0 z_c2_c4 + [ kDash_c2 * o_2 - k_c2 * o_2 ] <= 10.0
  FreightSV_c2_c5:  pi_c5 - pi_c2 - kDash_c2 + 20.0 z_c2_c5 + [ kDash_c2 * o_2 - k_c2 * o_2 ] <= 10.0
  FreightSV_c2_dN:  pi_dN - pi_c2 - kDash_c2 + 20.0 z_c2_dN + [ kDash_c2 * o_2 - k_c2 * o_2 ] <= 10.0
  FreightSV_c3_c1:  pi_c1 - pi_c3 - kDash_c3 + 20.0 z_c3_c1 + [ kDash_c3 * o_3 - k_c3 * o_3 ] <= 10.0
  FreightSV_c3_c2:  pi_c2 - pi_c3 - kDash_c3 + 20.0 z_c3_c2 + [ kDash_c3 * o_3 - k_c3 * o_3 ] <= 10.0
  FreightSV_c3_c4:  pi_c4 - pi_c3 - kDash_c3 + 20.0 z_c3_c4 + [ kDash_c3 * o_3 - k_c3 * o_3 ] <= 10.0
  FreightSV_c3_c5:  pi_c5 - pi_c3 - kDash_c3 + 20.0 z_c3_c5 + [ kDash_c3 * o_3 - k_c3 * o_3 ] <= 10.0
  FreightSV_c3_dN:  pi_dN - pi_c3 - kDash_c3 + 20.0 z_c3_dN + [ kDash_c3 * o_3 - k_c3 * o_3 ] <= 10.0
  FreightSV_c4_c1:  pi_c1 - pi_c4 - kDash_c4 + 20.0 z_c4_c1 + [ kDash_c4 * o_4 - k_c4 * o_4 ] <= 10.0
  FreightSV_c4_c2:  pi_c2 - pi_c4 - kDash_c4 + 20.0 z_c4_c2 + [ kDash_c4 * o_4 - k_c4 * o_4 ] <= 10.0
  FreightSV_c4_c3:  pi_c3 - pi_c4 - kDash_c4 + 20.0 z_c4_c3 + [ kDash_c4 * o_4 - k_c4 * o_4 ] <= 10.0
  FreightSV_c4_c5:  pi_c5 - pi_c4 - kDash_c4 + 20.0 z_c4_c5 + [ kDash_c4 * o_4 - k_c4 * o_4 ] <= 10.0
  FreightSV_c4_dN:  pi_dN - pi_c4 - kDash_c4 + 20.0 z_c4_dN + [ kDash_c4 * o_4 - k_c4 * o_4 ] <= 10.0
  FreightSV_c5_c1:  pi_c1 - pi_c5 - kDash_c5 + 20.0 z_c5_c1 + [ kDash_c5 * o_5 - k_c5 * o_5 ] <= 10.0
  FreightSV_c5_c2:  pi_c2 - pi_c5 - kDash_c5 + 20.0 z_c5_c2 + [ kDash_c5 * o_5 - k_c5 * o_5 ] <= 10.0
  FreightSV_c5_c3:  pi_c3 - pi_c5 - kDash_c5 + 20.0 z_c5_c3 + [ kDash_c5 * o_5 - k_c5 * o_5 ] <= 10.0
  FreightSV_c5_c4:  pi_c4 - pi_c5 - kDash_c5 + 20.0 z_c5_c4 + [ kDash_c5 * o_5 - k_c5 * o_5 ] <= 10.0
  FreightSV_c5_dN:  pi_dN - pi_c5 - kDash_c5 + 20.0 z_c5_dN + [ kDash_c5 * o_5 - k_c5 * o_5 ] <= 10.0
  FuelDV_d0_c1:  phi_c1 - phi_d0 + 12.7479 x_d0_c1 <= 12.0
  FuelDV_d0_c2:  phi_c2 - phi_d0 + 13.4959 x_d0_c2 <= 12.0
  FuelDV_d0_c3:  phi_c3 - phi_d0 + 12.2756 x_d0_c3 <= 12.0
  FuelDV_d0_c4:  phi_c4 - phi_d0 + 13.567499999999999 x_d0_c4 <= 12.0
  FuelDV_d0_c5:  phi_c5 - phi_d0 + 13.6725 x_d0_c5 <= 12.0
  FuelDV_c1_c2:  phi_c2 - phi_c1 + 12.8055 x_c1_c2 <= 12.0
  FuelDV_c1_c3:  phi_c3 - phi_c1 + 13.0236 x_c1_c3 <= 12.0
  FuelDV_c1_c4:  phi_c4 - phi_c1 + 14.0425 x_c1_c4 <= 12.0
  FuelDV_c1_c5:  phi_c5 - phi_c1 + 14.3656 x_c1_c5 <= 12.0
  FuelDV_c1_dN:  phi_dN - phi_c1 + 12.7479 x_c1_dN <= 12.0
  FuelDV_c2_c1:  phi_c1 - phi_c2 + 12.8055 x_c2_c1 <= 12.0
  FuelDV_c2_c3:  phi_c3 - phi_c2 + 13.7662 x_c2_c3 <= 12.0
  FuelDV_c2_c4:  phi_c4 - phi_c2 + 14.4017 x_c2_c4 <= 12.0
  FuelDV_c2_c5:  phi_c5 - phi_c2 + 15.1557 x_c2_c5 <= 12.0
  FuelDV_c2_dN:  phi_dN - phi_c2 + 13.4959 x_c2_dN <= 12.0
  FuelDV_c3_c1:  phi_c1 - phi_c3 + 13.0236 x_c3_c1 <= 12.0
  FuelDV_c3_c2:  phi_c2 - phi_c3 + 13.7662 x_c3_c2 <= 12.0
  FuelDV_c3_c4:  phi_c4 - phi_c3 + 13.4685 x_c3_c4 <= 12.0
  FuelDV_c3_c5:  phi_c5 - phi_c3 + 13.4223 x_c3_c5 <= 12.0
  FuelDV_c3_dN:  phi_dN - phi_c3 + 12.2756 x_c3_dN <= 12.0
  FuelDV_c4_c1:  phi_c1 - phi_c4 + 14.0425 x_c4_c1 <= 12.0
  FuelDV_c4_c2:  phi_c2 - phi_c4 + 14.4017 x_c4_c2 <= 12.0
  FuelDV_c4_c3:  phi_c3 - phi_c4 + 13.4685 x_c4_c3 <= 12.0
  FuelDV_c4_c5:  phi_c5 - phi_c4 + 14.2331 x_c4_c5 <= 12.0
  FuelDV_c4_dN:  phi_dN - phi_c4 + 13.567499999999999 x_c4_dN <= 12.0
  FuelDV_c5_c1:  phi_c1 - phi_c5 + 14.3656 x_c5_c1 <= 12.0
  FuelDV_c5_c2:  phi_c2 - phi_c5 + 15.1557 x_c5_c2 <= 12.0
  FuelDV_c5_c3:  phi_c3 - phi_c5 + 13.4223 x_c5_c3 <= 12.0
  FuelDV_c5_c4:  phi_c4 - phi_c5 + 14.2331 x_c5_c4 <= 12.0
  FuelDV_c5_dN:  phi_dN - phi_c5 + 13.6725 x_c5_dN <= 12.0
  WorkingTimeD_c1:  tauD_c1 + 8.0 p_1 <= 90.205
  WorkingTimeD_c2:  tauD_c2 + 8.0 p_2 <= 87.41
  WorkingTimeD_c3:  tauD_c3 + 8.0 p_3 <= 91.97
  WorkingTimeD_c4:  tauD_c4 + 8.0 p_4 <= 90.1425
  WorkingTimeD_c5:  tauD_c5 + 8.0 p_5 <= 84.75
Bounds
0 <= kDash_c1 <= 10.0
0 <= kDash_c2 <= 10.0
0 <= kDash_c3 <= 10.0
0 <= kDash_c4 <= 10.0
0 <= kDash_c5 <= 10.0
0 <= kDash_dN <= 10.0
0 <= k_c1 <= 10.0
0 <= k_c2 <= 10.0
0 <= k_c3 <= 10.0
0 <= k_c4 <= 10.0
0 <= k_c5 <= 10.0
0 <= k_dN <= 10.0
0 <= phi_c1 <= 12.0
0 <= phi_c2 <= 12.0
0 <= phi_c3 <= 12.0
0 <= phi_c4 <= 12.0
0 <= phi_c5 <= 12.0
0 <= phi_d0 <= 12.0
0 <= phi_dN <= 12.0
0 <= pi_c1 <= 50.0
0 <= pi_c2 <= 50.0
0 <= pi_c3 <= 50.0
0 <= pi_c4 <= 50.0
0 <= pi_c5 <= 50.0
0 <= pi_dN <= 50.0
0 <= tauD_c1 <= 100.0
0 <= tauD_c2 <= 100.0
0 <= tauD_c3 <= 100.0
0 <= tauD_c4 <= 100.0
0 <= tauD_c5 <= 100.0
0 <= tauD_d0 <= 100.0
0 <= tauD_dN <= 100.0
0 <= tauS_c1 <= 100.0
0 <= tauS_c2 <= 100.0
0 <= tauS_c3 <= 100.0
0 <= tauS_c4 <= 100.0
0 <= tauS_c5 <= 100.0
0 <= tauS_d0 <= 100.0
0 <= tauS_dN <= 100.0
Generals
  kDash_c1
  kDash_c2
  kDash_c3
  kDash_c4
  kDash_c5
  kDash_dN
  k_c1
  k_c2
  k_c3
  k_c4
  k_c5
  k_dN
  phi_c1
  phi_c2
  phi_c3
  phi_c4
  phi_c5
  phi_d0
  phi_dN
  pi_c1
  pi_c2
  pi_c3
  pi_c4
  pi_c5
  pi_dN
  tauD_c1
  tauD_c2
  tauD_c3
  tauD_c4
  tauD_c5
  tauD_d0
  tauD_dN
  tauS_c1
  tauS_c2
  tauS_c3
  tauS_c4
  tauS_c5
  tauS_d0
  tauS_dN
Binary
  o_1
  o_2
  o_3
  o_4
  o_5
  p_1
  p_2
  p_3
  p_4
  p_5
  x_c1_c2
  x_c1_c3
  x_c1_c4
  x_c1_c5
  x_c1_dN
  x_c2_c1
  x_c2_c3
  x_c2_c4
  x_c2_c5
  x_c2_dN
  x_c3_c1
  x_c3_c2
  x_c3_c4
  x_c3_c5
  x_c3_dN
  x_c4_c1
  x_c4_c2
  x_c4_c3
  x_c4_c5
  x_c4_dN
  x_c5_c1
  x_c5_c2
  x_c5_c3
  x_c5_c4
  x_c5_dN
  x_d0_c1
  x_d0_c2
  x_d0_c3
  x_d0_c4
  x_d0_c5
  z_c1_c2
  z_c1_c3
  z_c1_c4
  z_c1_c5
  z_c1_dN
  z_c2_c1
  z_c2_c3
  z_c2_c4
  z_c2_c5
  z_c2_dN
  z_c3_c1
  z_c3_c2
  z_c3_c4
  z_c3_c5
  z_c3_dN
  z_c4_c1
  z_c4_c2
  z_c4_c3
  z_c4_c5
  z_c4_dN
  z_c5_c1
  z_c5_c2
  z_c5_c3
  z_c5_c4
  z_c5_dN
  z_d0_c1
  z_d0_c2
  z_d0_c3
  z_d0_c4
  z_d0_c5
End
