VRPTWMS/instances/mip/freight/5/N5-C_DV10-C_SV50_F12_19_No_1.log

Gurobi 6.0.4 (win64) logging started 06/13/15 23:06:38

Warning: unknown variable 'kDash_dN' in bounds section
Read LP format model from file C:\MT\repository\VRPTWMS\instances\mip\freight\N5-C_DV10-C_SV50_F12_19_No_1.lp
Reading time = 0.00 seconds
(null): 161 rows, 110 columns, 603 nonzeros
Optimize a model with 161 rows, 110 columns and 603 nonzeros
Model has 180 quadratic constraints
WARNING: Only barrier available for SOCP models
Coefficient statistics:
  Matrix range    [1e+00, 1e+02]
  Objective range [4e+00, 1e+03]
  Bounds range    [1e+00, 1e+02]
  RHS range       [1e+00, 1e+02]
Presolve removed 27 rows and 13 columns
Presolve time: 0.02s
Presolved: 571 rows, 328 columns, 2430 nonzeros
Variable types: 206 continuous, 122 integer (88 binary)
Found heuristic solution: objective 5172.1800000
Optimize a model with 571 rows, 328 columns and 2430 nonzeros
Coefficient statistics:
  Matrix range    [1e+00, 1e+02]
  Objective range [4e+00, 1e+03]
  Bounds range    [1e+00, 1e+02]
  RHS range       [1e+00, 1e+02]
Presolve removed 30 rows and 18 columns
Presolved: 541 rows, 311 columns, 2293 nonzeros


Root relaxation: objective 7.791417e+02, 105 iterations, 0.01 seconds

    Nodes    |    Current Node    |     Objective Bounds      |     Work
 Expl Unexpl |  Obj  Depth IntInf | Incumbent    BestBd   Gap | It/Node Time

     0     0  779.14168    0   46 5172.18000  779.14168  84.9%     -    0s
H    0     0                    4171.3600000  779.14168  81.3%     -    0s
     0     0 1162.18772    0   52 4171.36000 1162.18772  72.1%     -    0s
H    0     0                    4157.1300000 1162.18772  72.0%     -    0s
     0     0 1176.23736    0   42 4157.13000 1176.23736  71.7%     -    0s
     0     0 1183.38000    0   46 4157.13000 1183.38000  71.5%     -    0s
     0     0 1183.38000    0   47 4157.13000 1183.38000  71.5%     -    0s
     0     0 1183.38000    0   46 4157.13000 1183.38000  71.5%     -    0s
     0     0 1183.38000    0   45 4157.13000 1183.38000  71.5%     -    0s
     0     0 1183.38000    0   45 4157.13000 1183.38000  71.5%     -    0s
     0     2 1183.38000    0   45 4157.13000 1183.38000  71.5%     -    0s
*   45    25               4    3210.8900000 1197.27000  62.7%  40.9    0s
*  171    45               4    3158.3700000 1760.71712  44.3%  33.3    0s

Cutting planes:
  Gomory: 1
  Cover: 47
  Implied bound: 62
  Clique: 26
  MIR: 36
  Flow cover: 5
  GUB cover: 13
  Zero half: 2

Explored 383 nodes (11660 simplex iterations) in 0.32 seconds
Thread count was 2 (of 4 available processors)

Optimal solution found (tolerance 1.00e-04)
Best objective 3.158370000000e+03, best bound 3.158370000000e+03, gap 0.0%
k_c1	0.0
k_c2	7.0
k_c3	0.0
k_c4	10.0
k_c5	4.0
k_dN	-0.0
kDash_c1	4.000000000000014
kDash_c2	0.0
kDash_c3	-0.0
kDash_c4	4.0
kDash_c5	-0.0
kDash_dN	-0.0
o_1	1.0000000000000036
o_2	0.0
o_3	1.0
o_4	0.0
o_5	-0.0
p_1	1.0000000000000036
p_2	0.0
p_3	1.0
p_4	0.0
p_5	0.0
phi_c1	1.0
phi_c2	10.0
phi_c3	1.0
phi_c4	9.999999999999998
phi_c5	3.0
phi_d0	12.0
phi_dN	-0.0
pi_c1	20.000000000000036
pi_c2	10.000000000000036
pi_c3	10.0
pi_c4	6.0000000000000355
pi_c5	10.000000000000036
pi_dN	-0.0
tauD_c1	71.00000000000003
tauD_c2	40.0
tauD_c3	83.0
tauD_c4	25.0
tauD_c5	65.0
tauD_d0	-0.0
tauD_dN	100.0
tauS_c1	71.0
tauS_c2	86.0
tauS_c3	83.0
tauS_c4	86.0
tauS_c5	85.0
tauS_d0	-0.0
tauS_dN	93.0
x_c1_dN	1.0
x_c2_c1	1.0
x_c3_dN	1.0
x_c4_c5	1.0
x_c5_c3	1.0
x_d0_c2	1.0
x_d0_c4	1.0
z_c1_c3	1.0
z_c3_dN	1.0
z_d0_c1	1.0000000000000036
